4 10 18 14 6 11 15 7 8 17 12 9 19 5 13 0 1 2 16 3  
4 10 18 14 6 11 7 8 17 12 9 15 19 5 0 1 13 2 16 3  
4 10 18 14 6 11 15 0 8 17 12 9 19 1 7 2 13 16 5 3  
4 10 18 14 6 11 7 8 17 12 9 19 16 15 5 0 1 13 2 3  
4 10 18 14 6 11 7 8 17 12 9 15 19 5 0 1 2 13 16 3  
4 10 18 14 6 7 11 8 17 12 9 15 19 5 0 1 13 2 16 3  
4 10 18 14 6 11 7 8 0 12 9 15 19 5 17 1 2 13 16 3  
4 10 18 14 6 7 11 8 17 12 9 15 19 5 2 13 16 0 1 3  
4 10 18 14 6 15 7 8 17 12 9 11 19 5 0 1 2 13 16 3  
4 10 18 14 6 11 17 15 8 0 12 9 19 1 7 2 13 16 5 3  
4 10 18 14 6 11 7 8 17 12 9 15 19 5 0 1 2 13 16 3  
4 10 18 14 6 11 7 8 0 12 9 15 19 5 17 1 2 13 16 3  
4 10 18 14 6 15 7 11 8 17 12 9 19 5 1 0 2 13 16 3  
4 10 18 14 6 15 0 11 8 17 12 9 1 7 13 5 2 3 19 16  
4 10 18 14 6 11 7 8 17 12 9 19 16 15 5 2 0 1 3 13  
4 10 18 14 6 15 7 8 0 12 9 19 11 5 17 1 2 13 16 3  
4 10 18 14 6 11 15 7 8 17 12 9 19 1 0 2 13 16 5 3  
4 10 18 14 6 11 7 8 17 12 9 15 19 5 0 1 13 2 16 3  
4 10 18 14 6 11 7 8 17 12 9 19 16 15 5 2 13 0 1 3  
4 10 18 14 6 11 17 15 8 0 12 9 19 1 7 2 13 16 5 3  
4 10 18 14 6 11 15 0 8 17 12 9 19 16 5 13 1 7 2 3  
4 10 18 14 6 7 11 8 17 12 9 15 5 19 2 13 0 1 16 3  
4 10 18 14 6 11 7 8 17 12 9 19 16 15 5 0 3 13 2 1  
4 10 18 14 6 11 7 8 17 12 9 15 19 5 0 1 2 13 16 3  
4 10 18 14 6 15 7 8 17 12 9 11 19 5 0 1 13 2 16 3  
4 10 18 14 6 11 0 8 15 17 12 9 19 16 5 13 2 1 7 3  
4 10 18 14 6 15 7 8 17 12 9 11 19 5 0 1 2 13 16 3  
4 10 18 14 6 11 7 8 17 12 9 19 16 15 5 0 1 3 2 13  
4 10 18 14 6 11 7 8 17 12 9 15 19 5 0 1 2 13 16 3  
4 10 18 14 6 11 0 8 15 17 12 9 13 16 5 19 1 7 2 3  
4 10 18 14 6 11 15 7 8 17 12 9 19 1 0 2 13 16 5 3  
4 10 18 14 6 15 7 8 17 12 9 11 19 5 0 1 13 2 16 3  
4 10 18 14 6 7 11 8 17 12 9 15 19 5 0 1 13 2 16 3  
4 10 18 14 6 11 0 8 15 17 12 9 19 16 5 2 13 7 3 1  
4 10 18 14 6 11 7 8 0 12 9 15 19 5 17 1 2 13 16 3  
4 10 18 14 6 11 17 8 15 0 12 9 13 16 5 19 1 7 2 3  
4 10 18 14 6 11 7 8 17 12 9 19 16 15 5 2 0 1 3 13  
4 10 18 14 6 11 0 8 15 17 12 9 19 16 5 7 3 1 2 13  
4 10 18 14 6 11 7 8 17 12 9 13 16 15 5 0 1 2 19 3  
4 10 18 14 6 11 7 8 17 12 9 15 19 5 2 3 13 16 0 1  
4 10 18 14 6 11 7 8 17 12 9 19 15 16 5 2 0 1 13 3  
4 10 18 14 6 11 7 8 17 12 9 15 0 13 16 5 2 1 3 19  
4 10 18 14 6 11 7 8 17 12 9 15 0 13 16 5 2 3 1 19  
4 10 18 14 6 15 0 8 11 17 12 9 1 5 19 13 2 16 7 3  
4 10 18 14 6 11 7 8 17 12 9 15 19 5 0 1 13 2 16 3  
4 10 18 14 6 11 0 8 15 17 12 9 19 16 5 2 13 7 3 1  
4 10 18 14 6 11 0 8 15 17 12 9 19 16 5 2 13 7 1 3  
4 10 18 14 6 15 17 8 11 7 12 9 19 5 13 0 1 2 16 3  
4 10 18 14 6 15 0 11 8 17 12 9 1 7 2 19 5 3 13 16  
